Optimal - objective value 126.00000000
      0 C                       126                       0
      2 x_0_1                    39                       0
      3 x_0_2                    49                       0
      4 x_0_3                    58                       0
      5 x_0_4                    78                       0
      6 x_1_0                    12                       0
      7 x_1_1                    35                       0
      8 x_1_2                    48                       0
      9 x_1_3                    66                       0
     10 x_1_4                    78                       0
     12 x_2_1                    12                       0
     13 x_2_2                    53                       0
     14 x_2_3                    99                       0
     15 x_2_4                   112                       0
     17 x_3_1                    17                       0
     18 x_3_2                    25                       0
     19 x_3_3                    26                       0
     20 x_3_4                    32                       0
     22 x_4_1                    17                       0
     23 x_4_2                    35                       0
     24 x_4_3                    43                       0
     25 x_4_4                    68                       0
     26 x_5_0                    41                       0
     27 x_5_1                    53                       0
     28 x_5_2                    68                       0
     29 x_5_3                    83                       0
     30 x_5_4                    96                       0
     31 x_6_0                    25                       0
     32 x_6_1                    65                       0
     33 x_6_2                    82                       0
     34 x_6_3                    99                       0
     35 x_6_4                   111                       0
     36 y_0_1_0                   1                       0
     37 y_0_1_1                   1                       0
     39 y_0_1_3                   1                       0
     41 y_0_2_0                   1                       0
     42 y_0_2_1                   1                       0
     45 y_0_2_4                   1                       0
     46 y_0_3_0                   1                       0
     47 y_0_3_1                   1                       0
     49 y_0_3_3                   1                       0
     50 y_0_3_4                   1                       0
     51 y_0_4_0                   1                       0
     54 y_0_4_3                   1                       0
     55 y_0_4_4                   1                     433
     56 y_0_5_0                   1                       0
     61 y_0_6_0                   1                       0
     66 y_1_2_0                   1                       0
     67 y_1_2_1                   1                       0
     70 y_1_2_4                   1                       0
     71 y_1_3_0                   1                       0
     73 y_1_3_2                   1                       0
     74 y_1_3_3                   1                       0
     75 y_1_3_4                   1                       0
     76 y_1_4_0                   1                       0
     78 y_1_4_2                   1                       0
     79 y_1_4_3                   1                       0
     80 y_1_4_4                   1                       0
     81 y_1_5_0                   1                       0
     86 y_1_6_0                   1                       0
     91 y_2_3_0                   1                       0
     93 y_2_3_2                   1                       0
     94 y_2_3_3                   1                       0
     96 y_2_4_0                   1                       0
     98 y_2_4_2                   1                       0
     99 y_2_4_3                   1                       0
    101 y_2_5_0                   1                       0
    103 y_2_5_2                   1                       0
    104 y_2_5_3                   1                       0
    106 y_2_6_0                   1                       0
    108 y_2_6_2                   1                       0
    109 y_2_6_3                   1                       0
    111 y_3_4_0                   1                     433
    127 y_4_5_1                   1                       0
    136 y_5_6_0                   1                       0
    138 y_5_6_2                   1                       0
